Version identifier: 20.1.0.0 | 2020-11-10 | 9bedb6d68
Tried aggregator 3 times.
MIP Presolve eliminated 1343 rows and 757 columns.
MIP Presolve modified 2543 coefficients.
Aggregator did 135 substitutions.
Reduced MIP has 1078 rows, 915 columns, and 3415 nonzeros.
Reduced MIP has 251 binaries, 664 generals, 0 SOSs, and 0 indicators.
Presolve time = 0.02 sec. (6.67 ticks)
Found incumbent of value 33.000000 after 0.03 sec. (10.71 ticks)
Probing fixed 30 vars, tightened 240 bounds.
Probing time = 0.00 sec. (1.04 ticks)
Tried aggregator 2 times.
Detecting symmetries...
MIP Presolve eliminated 445 rows and 63 columns.
MIP Presolve modified 102 coefficients.
Aggregator did 19 substitutions.
Reduced MIP has 614 rows, 833 columns, and 1991 nonzeros.
Reduced MIP has 337 binaries, 496 generals, 0 SOSs, and 0 indicators.
Presolve time = 0.01 sec. (3.06 ticks)
Probing time = 0.00 sec. (0.19 ticks)
Clique table members: 61.
MIP emphasis: balance optimality and feasibility.
MIP search method: dynamic search.
Parallel mode: deterministic, using up to 24 threads.
Root relaxation solution time = 0.00 sec. (1.93 ticks)

        Nodes                                         Cuts/
   Node  Left     Objective  IInf  Best Integer    Best Bound    ItCnt     Gap

*     0+    0                           33.0000        0.0000           100.00%
      0     0        0.2500    44       33.0000        0.2500      213   99.24%
      0     0        2.0000   153       33.0000     Cuts: 167      447   93.94%
      0     0        2.0000   219       33.0000      Cuts: 98      597   93.94%
*     0+    0                           13.0000        2.0000            84.62%
      0     0        2.0000   231       13.0000      Cuts: 27      639   84.62%
*     0+    0                           10.0000        2.0000            80.00%
      0     0        cutoff             10.0000       10.0000      639    0.00%
Elapsed time = 0.36 sec. (87.96 ticks, tree = 0.01 MB, solutions = 3)

Implied bound cuts applied:  24
Mixed integer rounding cuts applied:  2
Zero-half cuts applied:  30
Gomory fractional cuts applied:  5

Root node processing (before b&c):
  Real time             =    0.36 sec. (88.05 ticks)
Parallel b&c, 24 threads:
  Real time             =    0.00 sec. (0.00 ticks)
  Sync time (average)   =    0.00 sec.
  Wait time (average)   =    0.00 sec.
                          ------------
Total (root+branch&cut) =    0.36 sec. (88.05 ticks)

Solution status = Optimal
Solution LB = 10
Solution UB = 10
Runtime = 0.368267 seconds
	Command being timed: "/home/min/git_repos/CS598MEBProject/CNT-ILP/build/cnt -s 2 ./output/k6_n30/simC_c1_k6_n30_u3_s1_del04.input-right.cnp"
	User time (seconds): 5.62
	System time (seconds): 0.06
	Percent of CPU this job got: 1468%
	Elapsed (wall clock) time (h:mm:ss or m:ss): 0:00.38
	Average shared text size (kbytes): 0
	Average unshared data size (kbytes): 0
	Average stack size (kbytes): 0
	Average total size (kbytes): 0
	Maximum resident set size (kbytes): 72372
	Average resident set size (kbytes): 0
	Major (requiring I/O) page faults: 0
	Minor (reclaiming a frame) page faults: 15385
	Voluntary context switches: 4009
	Involuntary context switches: 975
	Swaps: 0
	File system inputs: 0
	File system outputs: 16
	Socket messages sent: 0
	Socket messages received: 0
	Signals delivered: 0
	Page size (bytes): 4096
	Exit status: 0
